50
1000
394
392
391
386
383
382
380
370
369
368
368
365
356
356
355
354
348
342
339
338
337
335
333
333
332
326
326
326
324
321
321
318
317
312
305
304
303
302
299
291
287
281
281
279
278
278
274
274
267
266
